
Gurobi 12.0.3 (linux64) logging started Fri Mar 27 03:17:04 2026

Set parameter LogFile to value "/home/solar-wind/WT_Solar_results_bigM100000_thread4/case24_ieee_rts_theta0.12_epsilon0.08_gurobi_seed0_num_gen38_N_WDR300_load_scaling_factor1_EIFICA_T24_num_Solar5_num_WT10.txt"
Gurobi Optimizer version 12.0.3 build v12.0.3rc0 (linux64 - "Ubuntu 22.04.5 LTS")

CPU model: Intel(R) Xeon(R) Platinum 8378A CPU @ 3.00GHz, instruction set [SSE2|AVX|AVX2|AVX512]
Thread count: 32 physical cores, 64 logical processors, using up to 4 threads

Non-default parameters:
TimeLimit  14400
MIPGap  0.001
Threads  4

Academic license 2721591 - for non-commercial use only - registered to fa___@mails.neu.edu.cn
Optimize a model with 835364 rows, 2125 columns and 75302440 nonzeros
Model fingerprint: 0xa3d20c4a
Model has 912 quadratic objective terms
Coefficient statistics:
  Matrix range     [3e-07, 7e+01]
  Objective range  [2e+01, 6e+01]
  QObjective range [4e-03, 2e-02]
  Bounds range     [0e+00, 0e+00]
  RHS range        [5e-02, 1e+03]
Presolve removed 609483 rows and 0 columns (presolve time = 6s)...
Presolve removed 610357 rows and 0 columns
Presolve time: 7.82s
Presolved: 225007 rows, 2999 columns, 5172448 nonzeros
Presolved model has 912 quadratic objective terms
Elapsed ordering time = 6s
Elapsed ordering time = 21s
Ordering time: 40.79s
Elapsed ordering time = 42s
Elapsed ordering time = 45s
Elapsed ordering time = 50s
Elapsed ordering time = 58s
Elapsed ordering time = 60s
Elapsed ordering time = 66s
Elapsed ordering time = 74s
Elapsed ordering time = 75s
Elapsed ordering time = 81s
Ordering time: 87.72s

Barrier statistics:
 Dense cols : 1231
 AA' NZ     : 2.852e+08
 Factor NZ  : 1.011e+09 (roughly 8.0 GB of memory)
 Factor Ops : 1.227e+13 (roughly 70 seconds per iteration)
 Threads    : 4

                  Objective                Residual
Iter       Primal          Dual         Primal    Dual     Compl     Time
   0   5.46473751e+08 -2.65298810e+08  3.81e+04 9.97e+02  9.92e+05   223s
   1   5.12311387e+08 -2.44170756e+08  3.65e+04 9.53e+02  9.49e+05   223s
   2   5.06461377e+08 -3.02210583e+08  3.62e+04 9.45e+02  9.44e+05   224s
   3   4.85007732e+08 -3.42309501e+08  3.51e+04 9.16e+02  9.27e+05   224s
   4   4.30844636e+08 -3.40431349e+08  3.23e+04 8.41e+02  8.52e+05   224s
   5   3.82862089e+08 -4.11619783e+08  2.97e+04 7.71e+02  8.05e+05   225s
   6   3.47071536e+08 -4.28924589e+08  2.76e+04 7.18e+02  7.49e+05   225s
   7   3.16263714e+08 -4.44449652e+08  2.57e+04 6.70e+02  7.00e+05   225s
   8   2.76115503e+08 -5.23670307e+08  2.33e+04 6.03e+02  6.73e+05   225s
   9   2.44635122e+08 -5.47789551e+08  2.13e+04 5.50e+02  6.15e+05   225s
  10   2.17487958e+08 -5.74442081e+08  1.95e+04 5.02e+02  5.62e+05   226s
  11   1.91548956e+08 -5.95594795e+08  1.77e+04 4.53e+02  5.09e+05   226s
  12   1.70301283e+08 -6.21895553e+08  1.61e+04 4.11e+02  4.63e+05   226s
  13   1.44590906e+08 -6.41285080e+08  1.41e+04 3.58e+02  4.05e+05   226s
  14   1.26484958e+08 -6.62203847e+08  1.26e+04 3.19e+02  3.62e+05   226s
  15   1.09529058e+08 -6.84894508e+08  1.12e+04 2.81e+02  3.20e+05   226s
  16   9.79880440e+07 -7.08238449e+08  1.02e+04 2.55e+02  2.91e+05   227s
  17   8.45010415e+07 -7.36924044e+08  8.98e+03 2.23e+02  2.56e+05   227s
  18   7.34896964e+07 -7.61933957e+08  8.01e+03 1.97e+02  2.26e+05   227s
  19   6.25791802e+07 -7.90757350e+08  6.99e+03 1.70e+02  1.96e+05   227s
  20   5.45489912e+07 -8.13111113e+08  6.20e+03 1.50e+02  1.73e+05   227s
  21   4.66115851e+07 -8.34764015e+08  5.40e+03 1.30e+02  1.51e+05   228s
  22   3.85345068e+07 -8.56350132e+08  4.56e+03 1.09e+02  1.27e+05   228s
  23   3.21735433e+07 -8.69438877e+08  3.86e+03 9.16e+01  1.07e+05   228s
  24   2.61934520e+07 -8.78211300e+08  3.18e+03 7.52e+01  8.86e+04   228s
  25   1.64860884e+07 -8.81007132e+08  2.75e+03 4.74e+01  6.15e+04   228s
  26   4.72283244e+06 -8.15650303e+08  1.82e+03 1.27e+01  2.30e+04   228s
  27   3.86408522e+06 -7.48896214e+08  1.48e+03 1.00e+01  1.84e+04   229s
  28   3.24539716e+06 -6.87742155e+08  1.22e+03 8.13e+00  1.50e+04   229s
  29   2.60955157e+06 -6.16165375e+08  9.52e+02 6.24e+00  1.17e+04   229s
  30   2.22590864e+06 -5.64023955e+08  7.83e+02 5.10e+00  9.59e+03   229s
  31   1.87014707e+06 -5.05028572e+08  6.11e+02 3.99e+00  7.58e+03   229s
  32   1.50413295e+06 -4.80087525e+08  4.21e+02 2.80e+00  5.94e+03   229s
  33   1.22604196e+06 -4.51768623e+08  2.62e+02 1.82e+00  4.55e+03   230s
  34   1.07940035e+06 -3.84169591e+08  1.88e+02 1.32e+00  3.36e+03   230s
  35   9.27804620e+05 -3.23287363e+08  1.08e+02 7.56e-01  2.29e+03   230s
  36   8.82812776e+05 -2.90110563e+08  8.32e+01 5.78e-01  1.89e+03   231s
  37   8.35322929e+05 -2.45195943e+08  5.43e+01 3.76e-01  1.43e+03   231s
  38   8.16862670e+05 -2.32963060e+08  4.09e+01 2.82e-01  1.28e+03   232s
  39   8.05627060e+05 -2.05986584e+08  3.19e+01 2.20e-01  1.09e+03   232s
  40   7.96729750e+05 -1.75273285e+08  2.29e+01 1.58e-01  8.91e+02   233s
  41   7.94680296e+05 -1.58389332e+08  1.88e+01 1.30e-01  7.89e+02   234s
  42   7.94267150e+05 -1.51138603e+08  1.72e+01 1.19e-01  7.47e+02   235s
  43   7.94021640e+05 -1.41759898e+08  1.53e+01 1.05e-01  6.96e+02   236s
  44   7.94608103e+05 -1.12467111e+08  1.09e+01 7.50e-02  5.42e+02   238s
  45   7.94848486e+05 -9.89760470e+07  8.98e+00 6.20e-02  4.78e+02   240s
  46   7.95490584e+05 -8.86412772e+07  7.09e+00 4.89e-02  4.16e+02   269s
  47   7.97165743e+05 -2.93507835e+07  1.67e+00 1.15e-02  1.34e+02   298s
  48   7.96430913e+05  4.18825662e+05  8.95e-03 1.21e-02  1.65e+00   326s
  49   7.41126265e+05  6.32284694e+05  1.11e-03 1.19e-03  4.76e-01   355s
  50   7.25302168e+05  6.74729870e+05  4.55e-04 2.12e-04  2.21e-01   386s
  51   7.20745059e+05  7.02729187e+05  1.10e-04 5.50e-06  7.87e-02   428s
  52   7.19018333e+05  7.11633608e+05  2.81e-05 1.40e-06  3.23e-02   480s
  53   7.18613155e+05  7.13627309e+05  1.83e-06 9.15e-08  2.18e-02   534s
  54   7.18047601e+05  7.16450528e+05  6.57e-09 3.30e-10  6.98e-03   588s
  55   7.17870943e+05  7.17323012e+05  9.28e-10 4.71e-11  2.39e-03   641s
  56   7.17821110e+05  7.17562524e+05  3.50e-10 7.62e-12  1.13e-03   697s
  57   7.17783713e+05  7.17746704e+05  2.40e-10 5.59e-11  1.62e-04   749s
  58   7.17780597e+05  7.17760626e+05  3.48e-09 9.45e-12  8.73e-05   801s
  59   7.17777969e+05  7.17773480e+05  2.91e-08 2.15e-11  1.96e-05   859s
  60   7.17777629e+05  7.17775148e+05  5.05e-09 3.58e-12  1.08e-05   910s
  61   7.17777295e+05  7.17776781e+05  8.24e-09 3.81e-11  2.25e-06   963s
  62   7.17777220e+05  7.17777147e+05  1.91e-09 3.69e-12  3.21e-07  1014s
  63   7.17777209e+05  7.17777199e+05  1.98e-07 5.64e-11  4.49e-08  1066s
  64   7.17777209e+05  7.17777200e+05  5.49e-07 8.80e-11  4.09e-08  1118s
  65   7.17777209e+05  7.17777202e+05  1.68e-06 1.31e-10  2.92e-08  1170s

Barrier solved model in 65 iterations and 1169.69 seconds (1553.26 work units)
Optimal objective 7.17777209e+05

